
List of user-set options:

                                    Name   Value                used
                           compl_inf_tol = 1                     yes
                         constr_viol_tol = 1                     yes
                            dual_inf_tol = 1000                  yes
                           linear_solver = ma97                  yes
                              ma86_small = 1e-30                  no
                                  ma86_u = 0.0001                 no
                              ma97_order = best                  yes
                              ma97_small = 1e-30                 yes
                            ma97_switch1 = at_start              yes
                            ma97_switch2 = od_hd_reuse           yes
                                  ma97_u = 1e-06                 yes
                               ma97_umax = 0.5                   yes
                                max_iter = 2000                  yes
                    max_refinement_steps = 20                    yes
                    min_refinement_steps = 5                     yes
                                 mu_init = 1e-06                 yes
           mu_superlinear_decrease_power = 1.25                  yes
                   nlp_scaling_min_value = 1e-08                 yes
                        option_file_name = Preset_Case:_68_NCP.opt  yes
                             output_file = ./tmp/Preset_Case:_68_NCP.output  yes
                      print_user_options = yes                   yes
        required_infeasibility_reduction = 1                      no
                                     tol = 1e-08                 yes
                   warm_start_bound_frac = 1e-20                 yes
                   warm_start_bound_push = 1e-20                 yes
                   warm_start_init_point = yes                   yes
              warm_start_mult_bound_push = 1e-20                 yes
                warm_start_mult_init_max = 1e+40                 yes
             warm_start_slack_bound_frac = 1e-20                 yes
             warm_start_slack_bound_push = 1e-20                 yes

******************************************************************************
This program contains Ipopt, a library for large-scale nonlinear optimization.
 Ipopt is released as open source code under the Eclipse Public License (EPL).
         For more information visit http://projects.coin-or.org/Ipopt
******************************************************************************

This is Ipopt version 3.12.10, running with linear solver ma97.

Number of nonzeros in equality constraint Jacobian...:   117140
Number of nonzeros in inequality constraint Jacobian.:      213
Number of nonzeros in Lagrangian Hessian.............:    47462

Total number of variables............................:    29971
                     variables with only lower bounds:    11312
                variables with lower and upper bounds:    15132
                     variables with only upper bounds:        0
Total number of equality constraints.................:    29864
Total number of inequality constraints...............:       25
        inequality constraints with only lower bounds:        4
   inequality constraints with lower and upper bounds:        0
        inequality constraints with only upper bounds:       21

iter    objective    inf_pr   inf_du lg(mu)  ||d||  lg(rg) alpha_du alpha_pr  ls
   0 -4.2070820e-02 4.39e-02 1.00e+00  -6.0 0.00e+00    -  0.00e+00 0.00e+00   0
   1r-4.2070820e-02 4.39e-02 9.99e+02  -1.4 0.00e+00  -4.0 0.00e+00 4.53e-23R 18
In iteration 1, 34 Slacks too small, adjusting variable bounds
   2r-4.2070820e-02 4.39e-02 9.99e+02  -1.4 2.40e+11    -  8.94e-14 1.07e-27f 22
   3r-4.2070820e-02 4.39e-02 9.99e+02  -1.4 0.00e+00    -  0.00e+00 3.11e-09R  2
   4r-4.2074910e-02 4.39e-02 9.99e+02  -1.4 4.29e+03    -  3.41e-06 4.79e-07f  1
   5 -4.2074918e-02 4.39e-02 4.79e+06  -6.0 1.50e+01    -  4.84e-02 2.10e-05h  1
   6r-4.2074918e-02 4.39e-02 1.00e+03  -1.4 0.00e+00    -  0.00e+00 9.64e-08R  2
   7r-4.1911798e-02 4.40e-02 9.99e+02  -1.4 1.96e+05    -  1.77e-07 5.82e-07f  1
   8r-4.1926395e-02 4.39e-02 1.09e+03  -1.4 2.09e+03    -  1.86e-05 6.42e-06f  1
   9r-4.1926395e-02 4.39e-02 9.99e+02  -1.4 0.00e+00    -  0.00e+00 1.55e-07R  2
iter    objective    inf_pr   inf_du lg(mu)  ||d||  lg(rg) alpha_du alpha_pr  ls
  10r-4.1927226e-02 4.38e-02 9.99e+02  -1.4 1.79e+03    -  4.23e-05 2.75e-07f  1
  11 -4.1927228e-02 4.38e-02 5.50e+06  -6.0 1.61e+01    -  5.63e-02 1.24e-05h  1
  12 -4.1929295e-02 4.38e-02 1.05e+07  -6.0 2.39e+03    -  1.35e-05 2.56e-05h  1
  13 -4.3057407e-02 1.88e+00 1.03e+07  -6.0 2.30e+03    -  3.41e-04 1.51e-02f  1
  14 -4.3023424e-02 1.87e+00 1.02e+07  -6.0 1.73e+03    -  8.21e-04 2.35e-03h  1
  15 -4.3003293e-02 1.87e+00 1.02e+07  -6.0 1.39e+03    -  2.13e-07 4.81e-04h  5
  16 -4.2983663e-02 1.87e+00 1.02e+07  -6.0 1.36e+03    -  3.38e-04 4.91e-04h  5
  17r-4.2983663e-02 1.87e+00 1.00e+03  -0.4 0.00e+00  -0.9 0.00e+00 1.07e-08R  2
  18r-4.2985541e-02 1.87e+00 3.71e+03  -0.4 7.15e+03    -  2.06e-07 1.83e-07f  1
  19r-4.2985541e-02 1.87e+00 9.99e+02  -0.4 0.00e+00    -  0.00e+00 4.76e-07R  2
iter    objective    inf_pr   inf_du lg(mu)  ||d||  lg(rg) alpha_du alpha_pr  ls
  20r-4.2986507e-02 1.87e+00 6.83e+03  -0.4 7.48e+03    -  1.97e-06 5.05e-08f  1
  21 -4.2986520e-02 1.87e+00 2.17e+07  -6.0 1.66e+01    -  1.39e-01 2.32e-05h  1
  22r-4.2986520e-02 1.87e+00 1.00e+03  -0.4 0.00e+00    -  0.00e+00 2.54e-07R  6
  23r-4.3006073e-02 1.87e+00 1.97e+03  -0.4 6.03e+05    -  1.85e-07 2.83e-07f  1
  24r-4.3006073e-02 1.87e+00 9.99e+02  -0.4 0.00e+00    -  0.00e+00 4.95e-07R  2
  25r-4.3006507e-02 1.87e+00 4.45e+03  -0.4 7.91e+03    -  1.21e-06 2.84e-08f  1
  26 -4.3006513e-02 1.87e+00 2.05e+07  -6.0 2.91e+01    -  2.00e-01 1.35e-05h  1
  27r-4.3006513e-02 1.87e+00 1.00e+03  -0.4 0.00e+00    -  0.00e+00 3.19e-07R  3
  28r-4.3017582e-02 1.87e+00 9.99e+02  -0.4 5.81e+05    -  3.38e-07 4.55e-07f  1
  29r-4.3017582e-02 1.87e+00 9.99e+02  -0.4 0.00e+00    -  0.00e+00 2.66e-07R  3
iter    objective    inf_pr   inf_du lg(mu)  ||d||  lg(rg) alpha_du alpha_pr  ls
  30r-4.3018486e-02 1.87e+00 6.79e+03  -0.4 6.27e+03    -  2.50e-06 6.59e-08f  1
  31 -4.3018501e-02 1.87e+00 2.67e+07  -6.0 1.32e+01    -  1.71e-01 3.00e-05h  1
  32 -4.3008204e-02 1.87e+00 2.27e+09  -6.0 4.55e+02    -  3.07e-05 2.61e-03h  1
  33r-4.3008204e-02 1.87e+00 9.99e+02  -0.4 0.00e+00    -  0.00e+00 4.77e-07R  5
  34r-4.3012137e-02 1.87e+00 2.31e+03  -0.4 5.47e+03    -  5.83e-06 3.28e-07f  1
  35r-4.3012137e-02 1.87e+00 9.99e+02  -0.4 0.00e+00    -  0.00e+00 3.86e-07R  2
  36r-4.3012478e-02 1.87e+00 3.93e+03  -0.4 6.49e+03    -  4.53e-06 2.65e-08f  1
  37 -4.3012484e-02 1.87e+00 1.59e+07  -6.0 1.36e+01    -  1.75e-01 1.20e-05h  1
  38 -4.3013968e-02 1.87e+00 2.32e+08  -6.0 1.50e+03    -  1.39e-05 2.04e-04h  1
  39 -4.3007167e-02 1.86e+00 2.32e+08  -6.0 9.64e+02    -  6.85e-03 2.46e-03f  1
iter    objective    inf_pr   inf_du lg(mu)  ||d||  lg(rg) alpha_du alpha_pr  ls
  40 -4.2970885e-02 1.85e+00 2.31e+08  -6.0 8.93e+02    -  2.76e-03 4.26e-03h  4
  41 -4.2935474e-02 1.85e+00 2.30e+08  -6.0 8.15e+02    -  3.38e-02 4.17e-03h  4
  42 -4.2905870e-02 1.83e+00 2.28e+08  -6.0 8.12e+02    -  1.39e-02 7.86e-03h  4
  43 -4.2851150e-02 1.80e+00 2.24e+08  -6.0 7.43e+02    -  5.09e-02 1.71e-02h  3
  44 -4.2814047e-02 1.77e+00 2.20e+08  -6.0 6.35e+02    -  5.62e-02 1.70e-02h  3
  45 -4.2779263e-02 1.74e+00 2.17e+08  -6.0 5.75e+02    -  8.80e-02 1.53e-02h  3
  46 -4.2702403e-02 1.71e+00 2.12e+08  -6.0 5.66e+02    -  1.23e-01 1.97e-02h  3
  47 -4.2602706e-02 1.68e+00 2.09e+08  -6.0 5.54e+02    -  1.60e-01 1.82e-02h  4
  48 -4.2466194e-02 1.64e+00 2.04e+08  -6.0 5.38e+02    -  1.94e-01 2.20e-02h  4
  49 -4.2307077e-02 1.60e+00 1.99e+08  -6.0 5.12e+02    -  3.43e-01 2.40e-02h  4
iter    objective    inf_pr   inf_du lg(mu)  ||d||  lg(rg) alpha_du alpha_pr  ls
  50 -3.9593638e-02 4.91e+00 1.37e+08  -6.0 4.88e+02    -  2.65e-01 3.13e-01w  1
  51 -3.9551012e-02 4.69e+00 1.31e+08  -6.0 1.29e+02    -  2.38e-01 4.53e-02w  1
  52 -3.9554503e-02 4.67e+00 1.30e+08  -6.0 8.48e+02    -  1.44e-04 3.37e-03w  1
  53 -4.2137487e-02 1.57e+00 1.95e+08  -6.0 1.23e+02    -  2.65e-01 1.96e-02h  4
  54 -4.1914973e-02 1.54e+00 1.91e+08  -6.0 4.51e+02    -  1.34e-01 2.11e-02h  5
  55 -4.1691460e-02 1.51e+00 1.87e+08  -6.0 4.11e+02    -  1.88e-01 2.23e-02h  5
  56 -4.1506508e-02 1.48e+00 1.83e+08  -6.0 3.81e+02    -  4.07e-02 1.80e-02h  3
  57 -4.1343686e-02 1.45e+00 1.80e+08  -6.0 3.90e+02    -  2.46e-02 2.07e-02h  1
  58 -4.1164229e-02 1.43e+00 1.76e+08  -6.0 3.71e+02    -  2.39e-01 1.89e-02h  5
  59 -4.0915899e-02 1.39e+00 1.72e+08  -6.0 4.71e+02    -  1.67e-01 2.56e-02h  4
iter    objective    inf_pr   inf_du lg(mu)  ||d||  lg(rg) alpha_du alpha_pr  ls
  60 -4.0745781e-02 1.37e+00 1.69e+08  -6.0 5.35e+02    -  3.00e-01 1.86e-02h  5
  61 -4.0513888e-02 1.33e+00 1.64e+08  -6.0 7.38e+02    -  2.09e-01 2.59e-02h  5
  62 -4.0319071e-02 1.30e+00 1.60e+08  -6.0 8.92e+02    -  4.91e-01 2.41e-02h  5
  63 -4.0258214e-02 1.29e+00 1.59e+08  -6.0 1.86e+03    -  3.12e-01 9.31e-03h  6
  64 -4.0236445e-02 1.29e+00 1.58e+08  -6.0 3.23e+03    -  2.25e-01 3.87e-03h  7
  65 -4.0227683e-02 1.29e+00 1.58e+08  -6.0 6.78e+03    -  1.46e-07 1.33e-03h  8
  66 -4.0227365e-02 1.28e+00 1.58e+08  -6.0 7.78e+01  -1.3 3.56e-02 3.93e-04h  1
  67 -4.0217486e-02 1.28e+00 1.58e+08  -6.0 6.72e+03    -  3.59e-06 1.45e-03h  8
  68 -4.0217470e-02 1.28e+00 1.58e+08  -6.0 7.80e+01  -1.8 2.51e-01 1.59e-05h  1
  69 -4.0216489e-02 1.28e+00 1.58e+08  -6.0 1.54e+02  -2.3 4.75e-02 4.88e-04h  1
iter    objective    inf_pr   inf_du lg(mu)  ||d||  lg(rg) alpha_du alpha_pr  ls
  70 -4.0070425e-02 1.24e+00 1.53e+08  -6.0 1.61e+02  -2.8 5.60e-01 3.19e-02h  4
  71 -3.9784007e-02 1.18e+00 1.44e+08  -6.0 1.46e+02  -3.3 7.16e-01 5.36e-02h  4
  72 -3.9434140e-02 1.12e+00 1.36e+08  -6.0 1.20e+02  -3.7 4.93e-01 5.54e-02h  4
  73 -3.9030213e-02 1.06e+00 1.29e+08  -6.0 1.11e+02  -4.2 2.65e-01 5.73e-02h  4
  74 -3.8612302e-02 1.01e+00 1.23e+08  -6.0 1.41e+02  -4.7 2.53e-07 4.62e-02h  4
  75 -3.8604120e-02 1.00e+00 1.21e+08  -6.0 4.67e+01  -2.4 5.01e-01 1.11e-02h  2
  76 -3.8597009e-02 9.97e-01 1.20e+08  -6.0 4.98e+01  -2.9 9.07e-01 6.40e-03h  2
  77 -3.8594429e-02 9.94e-01 1.20e+08  -6.0 4.76e+01  -2.5 5.01e-01 3.10e-03h  2
  78 -3.8591595e-02 9.92e-01 1.20e+08  -6.0 9.01e+01  -3.0 8.62e-01 1.22e-03h  6
  79 -3.8589146e-02 9.91e-01 1.20e+08  -6.0 1.04e+02  -3.5 6.52e-07 1.14e-03h  7
iter    objective    inf_pr   inf_du lg(mu)  ||d||  lg(rg) alpha_du alpha_pr  ls
  80 -3.8589085e-02 9.91e-01 1.20e+08  -6.0 3.57e+01  -2.1 1.92e-02 1.38e-04h  1
  81 -3.8430573e-02 9.21e-01 1.11e+08  -6.0 8.76e+01  -2.6 9.77e-01 7.12e-02h  1
  82 -3.8179390e-02 7.95e-01 9.56e+07  -6.0 8.40e+01  -3.1 7.86e-01 1.41e-01h  1
  83 -3.8179151e-02 7.95e-01 9.55e+07  -6.0 2.95e+01  -2.7 1.98e-02 6.40e-04h  1
  84 -3.8008282e-02 7.52e-01 9.04e+07  -6.0 1.83e+02  -3.1 2.37e-04 5.40e-02h  2
  85 -3.8008246e-02 7.52e-01 9.04e+07  -6.0 2.73e+01  -2.7 3.72e-01 9.58e-05h  1
  86 -3.7521328e-02 4.92e-01 5.75e+07  -6.0 6.19e+01  -3.2 1.17e-03 3.64e-01h  1
  87 -3.7521411e-02 4.92e-01 5.75e+07  -6.0 1.40e+02  -2.8 3.18e-02 1.22e-04h  1
  88 -3.7408115e-02 4.16e-01 4.85e+07  -6.0 3.24e+01  -3.2 1.31e-01 1.56e-01h  1
  89 -3.7395404e-02 4.01e-01 4.68e+07  -6.0 2.73e+01  -3.7 2.25e-02 3.50e-02h  1
iter    objective    inf_pr   inf_du lg(mu)  ||d||  lg(rg) alpha_du alpha_pr  ls
  90 -3.7395191e-02 4.00e-01 4.67e+07  -6.0 1.15e+01  -2.4 4.18e-01 2.33e-03h  1
  91 -3.7295797e-02 3.39e-01 3.96e+07  -6.0 2.18e+01  -2.0 4.73e-02 1.52e-01h  1
  92 -3.7298596e-02 3.39e-01 3.96e+07  -6.0 3.45e+01  -2.4 2.84e-02 5.74e-04h  1
  93 -3.6853461e-02 3.52e-01 3.39e+04  -6.0 1.94e+01  -2.9 2.72e-02 1.00e+00h  1
  94 -3.6973869e-02 1.72e-01 1.69e+04  -6.0 1.66e+00  -3.4 4.82e-01 5.11e-01h  1
  95 -3.7270780e-02 4.44e-03 1.19e+03  -6.0 1.09e+00  -3.9 7.27e-01 1.00e+00h  1
  96 -3.7775234e-02 1.95e-02 8.22e+02  -6.0 1.27e+00  -4.3 6.29e-01 1.00e+00h  1
  97 -3.8775587e-02 9.22e-02 3.69e+03  -6.0 3.38e+00  -4.8 5.87e-01 9.40e-01h  1
  98 -4.0207125e-02 6.84e-01 7.05e+06  -6.0 2.20e+01  -5.3 7.64e-04 3.05e-01f  1
  99 -4.0672134e-02 6.68e-01 6.44e+06  -6.0 2.15e+01  -5.8 3.32e-01 8.66e-02h  1
iter    objective    inf_pr   inf_du lg(mu)  ||d||  lg(rg) alpha_du alpha_pr  ls
 100 -5.2844038e-02 8.17e+00 1.33e+06  -6.0 5.38e+01  -6.2 2.18e-02 7.93e-01f  1
 101 -5.6041994e-02 4.39e+00 7.31e+05  -6.0 2.82e+01  -5.8 2.06e-01 4.51e-01h  1
 102 -5.8246965e-02 3.35e-01 1.26e+04  -6.0 1.27e+01  -5.4 5.83e-01 9.82e-01h  1
 103 -6.0302636e-02 4.57e-01 7.97e+03  -6.0 2.13e+01  -5.9 7.58e-01 3.67e-01h  1
 104 -6.1245757e-02 4.46e-01 7.50e+03  -6.0 2.99e+02  -6.4 8.82e-02 5.89e-02h  1
 105 -6.4998659e-02 8.82e-01 2.77e+03  -6.0 2.40e+01  -5.9 3.73e-01 6.31e-01h  1
 106 -6.5996686e-02 5.66e-01 8.26e+02  -6.0 1.04e+01  -5.5 4.49e-01 6.99e-01h  1
 107 -6.8980473e-02 3.27e-01 4.33e+02  -6.0 5.35e+01  -6.0 8.73e-02 4.80e-01h  1
 108 -6.9117388e-02 3.21e-01 4.19e+02  -6.0 7.54e+01  -6.5 2.03e-01 2.38e-02h  1
 109 -7.1117072e-02 1.12e+00 5.94e+02  -6.0 2.67e+02  -6.9 2.13e-01 6.60e-02f  1
iter    objective    inf_pr   inf_du lg(mu)  ||d||  lg(rg) alpha_du alpha_pr  ls
 110 -7.4848608e-02 9.40e-01 3.60e+02  -6.0 7.75e+01  -6.5 2.80e-01 3.15e-01h  1
 111 -7.9288489e-02 1.86e+00 2.28e+02  -6.0 2.55e+02  -7.0 6.01e-02 1.60e-01h  1
 112 -7.9468797e-02 1.91e+00 3.29e+02  -6.0 1.14e+03  -7.5 3.23e-02 4.56e-03h  1
 113 -8.1669023e-02 1.66e+00 2.76e+02  -6.0 1.77e+02  -7.0 2.18e-01 1.28e-01f  1
 114 -8.6786067e-02 1.16e+00 1.89e+03  -6.0 7.00e+01  -6.6 3.27e-02 6.27e-01h  1
 115 -8.6966153e-02 1.03e+00 1.66e+03  -6.0 1.07e+01  -5.3 8.45e-02 1.18e-01h  1
 116 -8.6944599e-02 9.23e-01 2.48e+03  -6.0 5.98e+01  -5.8 7.20e-02 1.92e-01h  1
 117 -8.6973422e-02 9.19e-01 2.47e+03  -6.0 4.57e+02  -6.2 8.19e-03 4.77e-03h  1
 118 -8.7145342e-02 4.74e-01 1.40e+03  -6.0 1.28e+01  -5.8 3.54e-02 4.85e-01h  1
 119 -8.7280154e-02 4.25e-01 1.27e+03  -6.0 2.68e+01  -6.3 1.00e+00 1.01e-01h  1
iter    objective    inf_pr   inf_du lg(mu)  ||d||  lg(rg) alpha_du alpha_pr  ls
 120 -8.7541744e-02 3.83e-01 1.14e+03  -6.0 5.54e+01  -6.8 4.77e-01 1.01e-01h  1
 121 -8.8283013e-02 2.32e-01 9.60e+01  -6.0 1.49e+01  -6.3 8.35e-01 9.17e-01h  1
 122 -8.8516348e-02 2.19e-01 5.15e+02  -6.0 5.56e+01  -6.8 2.19e-01 1.44e-01h  1
 123 -8.8628369e-02 1.84e-01 6.64e+01  -6.0 1.55e+01  -6.4 2.30e-01 1.96e-01h  1
 124 -8.9646267e-02 6.57e-01 5.38e+01  -6.0 7.66e+01  -6.9 5.27e-01 5.32e-01f  1
 125 -9.0900954e-02 3.53e-01 2.29e+03  -6.0 3.04e+01  -6.4 4.48e-01 1.00e+00h  1
 126 -9.1786649e-02 5.11e-02 4.04e+02  -6.0 1.34e+01  -6.0 2.96e-01 1.00e+00h  1
 127 -9.2749618e-02 1.67e-01 3.22e+02  -6.0 6.05e+01  -6.5 1.90e-01 3.57e-01h  1
 128 -9.2786416e-02 1.66e-01 2.04e+02  -6.0 9.46e+01  -7.0 3.74e-01 9.63e-03h  1
 129 -9.3676402e-02 2.68e+00 1.88e+02  -6.0 3.01e+02  -7.4 7.58e-02 6.82e-02f  1
iter    objective    inf_pr   inf_du lg(mu)  ||d||  lg(rg) alpha_du alpha_pr  ls
 130 -9.4214667e-02 2.58e+00 1.65e+02  -6.0 4.37e+02  -7.9 1.30e-01 3.70e-02h  1
 131 -9.4979206e-02 2.44e+00 1.19e+02  -6.0 1.25e+03  -8.4 2.81e-01 5.60e-02h  1
 132 -9.6640847e-02 1.61e+00 7.67e+01  -6.0 4.69e+02  -8.0 3.54e-01 3.70e-01h  1
 133 -9.8451603e-02 1.38e+00 5.98e+01  -6.0 1.33e+03  -8.4 2.16e-01 1.37e-01h  1
 134 -1.0124268e-01 1.59e+00 5.07e+01  -6.0 4.99e+02  -8.0 1.82e-01 5.31e-01h  1
 135 -1.0188370e-01 9.89e-01 1.49e+02  -6.0 1.85e+02  -7.6 1.18e-05 4.45e-01h  1
 136 -1.0197992e-01 9.04e-01 1.36e+02  -6.0 1.95e+01  -5.4 1.32e-01 8.57e-02h  1
 137 -1.0198140e-01 8.94e-01 1.30e+02  -6.0 6.22e+00  -5.8 4.16e-05 1.10e-02h  1
 138 -1.0194508e-01 8.92e-01 1.30e+02  -6.0 5.30e+02  -6.3 4.40e-02 2.39e-03h  1
 139 -1.0220644e-01 2.96e-02 1.14e+00  -6.0 2.96e+01  -6.8 9.80e-01 1.00e+00h  1
iter    objective    inf_pr   inf_du lg(mu)  ||d||  lg(rg) alpha_du alpha_pr  ls
 140 -1.0294010e-01 1.22e-01 5.02e-01  -6.0 8.68e+01  -7.3 1.00e+00 1.00e+00h  1
 141 -1.0436201e-01 4.82e-01 6.38e+00  -6.0 2.45e+02  -7.7 1.00e+00 6.73e-01h  1
 142 -1.0508949e-01 1.34e-01 5.07e-01  -6.0 8.98e+01  -7.3 1.00e+00 1.00e+00h  1
 143 -1.0535599e-01 1.84e-02 1.33e-01  -6.0 3.33e+01  -6.9 1.00e+00 1.00e+00h  1
 144 -1.0545778e-01 2.55e-03 7.18e-03  -6.0 1.24e+01  -6.5 1.00e+00 1.00e+00h  1
 145 -1.0577496e-01 2.23e-02 2.68e-01  -6.0 3.67e+01  -6.9 1.00e+00 1.00e+00h  1
 146 -1.0589448e-01 3.12e-03 6.67e-02  -6.0 1.37e+01  -6.5 1.00e+00 1.00e+00h  1
 147 -1.0614811e-01 1.13e-01 9.93e+00  -6.0 4.09e+01  -7.0 7.42e-01 5.60e-01h  1
 148 -1.0707203e-01 2.22e-01 2.12e+00  -6.0 1.16e+02  -7.5 1.00e+00 1.00e+00f  1
 149 -1.0716494e-01 2.14e-01 2.10e+01  -6.0 1.12e+02  -7.1 4.19e-02 3.80e-02h  1
iter    objective    inf_pr   inf_du lg(mu)  ||d||  lg(rg) alpha_du alpha_pr  ls
 150 -1.0820902e-01 2.54e-01 8.46e+00  -6.0 1.23e+02  -7.5 1.00e+00 1.00e+00h  1
 151 -1.0931927e-01 5.88e-01 4.68e+02  -6.0 3.07e+02  -8.0 2.20e-01 4.28e-01h  1
 152 -1.0959423e-01 4.39e-01 1.37e+03  -6.0 6.21e+02  -8.5 9.76e-02 4.70e-02h  1
 153 -1.1118191e-01 8.59e-01 5.31e+03  -6.0 1.44e+03  -9.0 2.19e-02 1.30e-01f  1
 154 -1.1133512e-01 1.02e+00 5.26e+03  -6.0 1.24e+03  -8.5 1.93e-01 9.12e-02h  1
 155 -1.1479253e-01 2.47e+00 2.95e+03  -6.0 8.46e+02  -9.0 6.50e-01 4.13e-01h  1
 156 -1.1661952e-01 2.02e+00 1.72e+03  -6.0 6.04e+02  -8.6 7.62e-01 4.61e-01h  1
 157 -1.1831633e-01 2.74e+00 1.30e+03  -6.0 1.13e+03  -9.1 4.78e-01 2.24e-01h  1
 158r-1.1831633e-01 2.74e+00 1.00e+03   0.3 0.00e+00  -8.6 0.00e+00 4.14e-07R  5
 159r-1.1826034e-01 2.73e+00 3.82e+04   0.3 3.74e+06    -  1.23e-06 1.41e-06f  1
iter    objective    inf_pr   inf_du lg(mu)  ||d||  lg(rg) alpha_du alpha_pr  ls
 160 -1.1848848e-01 2.73e+00 2.23e+02  -6.0 2.29e+05    -  6.16e-03 6.59e-04h  1
 161 -1.2483869e-01 4.21e+00 2.16e+02  -6.0 2.32e+05    -  2.66e-02 1.88e-02f  1
 162 -1.2589946e-01 4.36e+00 2.15e+02  -6.0 1.49e+05    -  5.99e-03 7.39e-03h  1
 163 -1.2813599e-01 4.40e+00 2.15e+02  -6.0 1.17e+05    -  1.47e-02 2.98e-02h  1
 164 -1.2859231e-01 4.38e+00 2.14e+02  -6.0 5.07e+04    -  4.24e-03 4.20e-03h  1
 165 -1.2874970e-01 4.36e+00 2.00e+02  -6.0 4.21e+04    -  5.47e-02 5.50e-03h  1
 166 -1.2994897e-01 5.21e+00 1.89e+02  -6.0 3.57e+04    -  4.79e-02 5.33e-02h  1
 167 -1.3084032e-01 7.83e+00 1.70e+02  -6.0 8.82e+03    -  6.32e-02 9.84e-02h  1
 168 -1.3113162e-01 7.51e+00 5.28e+02  -6.0 5.43e+03    -  3.02e-01 7.09e-02h  1
 169 -1.3132368e-01 7.05e+00 6.70e+02  -6.0 5.47e+03    -  1.85e-01 7.37e-02h  3
iter    objective    inf_pr   inf_du lg(mu)  ||d||  lg(rg) alpha_du alpha_pr  ls
 170 -1.3134706e-01 6.96e+00 8.75e+02  -6.0 3.20e+03    -  1.35e-01 1.25e-02h  6
 171 -1.3135310e-01 6.94e+00 9.45e+02  -6.0 3.18e+03    -  5.12e-02 3.19e-03h  8
 172 -1.3136551e-01 6.91e+00 9.91e+02  -6.0 9.36e+03    -  3.58e-02 4.38e-03h  7
 173 -1.3136849e-01 6.90e+00 1.05e+03  -6.0 5.96e+03    -  3.60e-02 1.01e-03h  9
 174 -1.3136887e-01 6.90e+00 1.09e+03  -6.0 7.13e+03    -  2.06e-02 1.34e-04h 12
 175 -1.3154951e-01 6.49e+00 9.71e+02  -6.0 5.89e+03    -  2.94e-02 5.89e-02h  3
 176 -1.3163906e-01 6.30e+00 9.38e+02  -6.0 7.26e+03    -  2.69e-02 2.94e-02h  4
 177 -1.3181221e-01 6.04e+00 1.04e+03  -6.0 8.52e+03    -  1.10e-01 4.29e-02h  3
 178 -1.3191948e-01 5.81e+00 1.16e+03  -6.0 7.49e+03    -  1.10e-01 3.79e-02h  3
 179 -1.3220269e-01 7.88e+00 1.45e+03  -6.0 7.43e+03    -  3.03e-01 1.09e-01w  1
iter    objective    inf_pr   inf_du lg(mu)  ||d||  lg(rg) alpha_du alpha_pr  ls
 180 -1.3260316e-01 3.32e+01 1.46e+03  -6.0 6.11e+03    -  3.87e-01 2.32e-01w  1
 181 -1.3277266e-01 2.74e+01 2.31e+03  -6.0 1.98e+02  -9.1 5.78e-01 1.76e-01w  1
 182 -1.3199028e-01 5.65e+00 1.71e+03  -6.0 6.24e+03    -  3.03e-01 2.72e-02h  2
 183 -1.3202926e-01 5.53e+00 2.34e+03  -6.0 6.76e+03    -  4.18e-01 2.09e-02h  4
 184 -1.3209806e-01 5.25e+00 2.33e+03  -6.0 4.79e+03    -  1.50e-01 5.06e-02h  4
 185 -1.3216659e-01 4.98e+00 2.60e+03  -6.0 5.28e+03    -  3.37e-01 5.13e-02h  4
 186 -1.3223840e-01 5.39e+00 2.84e+03  -6.0 4.54e+03    -  3.55e-01 5.62e-02h  4
 187 -1.3259666e-01 3.31e+00 1.93e+03  -6.0 4.07e+02  -9.6 6.68e-01 4.17e-01h  1
 188 -1.3268500e-01 8.63e+00 2.08e+03  -6.0 1.48e+04    -  9.09e-02 4.26e-02h  3
 189 -1.3269553e-01 8.57e+00 5.96e+03  -6.0 1.21e+03 -10.1 8.10e-01 7.38e-03h  7
iter    objective    inf_pr   inf_du lg(mu)  ||d||  lg(rg) alpha_du alpha_pr  ls
 190 -1.3269317e-01 9.75e+00 5.94e+03  -6.0 6.55e+04    -  1.48e-02 4.49e-03h  4
 191 -1.3270069e-01 9.73e+00 6.17e+03  -6.0 7.57e+03 -10.5 2.63e-01 9.52e-03h  6
 192 -1.3387428e-01 8.23e+00 1.55e+03  -6.0 2.60e+03 -10.1 4.32e-02 8.26e-01H  1
 193 -1.3429694e-01 5.61e+00 1.31e+04  -6.0 4.34e+02  -9.7 5.52e-02 4.48e-01h  1
 194 -1.3441808e-01 4.86e+00 3.42e+03  -6.0 1.36e+03 -10.2 2.21e-01 1.32e-01h  1
 195 -1.3447644e-01 4.57e+00 1.88e+06  -6.0 4.66e+03 -10.6 9.94e-04 5.96e-02h  3
 196 -1.3450389e-01 4.53e+00 1.86e+06  -6.0 2.76e+04    -  4.00e-02 9.83e-03h  4
 197 -1.3459253e-01 4.42e+00 1.50e+06  -6.0 1.39e+03 -10.2 7.47e-02 1.92e-01h  3
 198 -1.3484426e-01 3.52e+00 4.47e+05  -6.0 4.56e+02  -9.8 6.99e-01 7.03e-01h  1
 199 -1.3504843e-01 7.72e+00 2.52e+05  -6.0 2.18e+03 -10.3 3.46e-01 4.35e-01H  1
iter    objective    inf_pr   inf_du lg(mu)  ||d||  lg(rg) alpha_du alpha_pr  ls
 200 -1.3554021e-01 2.76e+00 2.77e+04  -6.0 1.20e+03  -9.8 5.26e-01 8.92e-01H  1
 201 -1.3566261e-01 2.86e+00 1.71e+04  -6.0 6.43e+02  -9.4 1.07e-01 3.85e-01h  1
 202 -1.3555288e-01 4.86e-01 1.60e+02  -6.0 1.28e+02  -8.1 6.13e-01 1.00e+00h  1
 203 -1.3562726e-01 3.12e-01 8.48e+01  -6.0 9.19e+01  -7.7 3.79e-01 4.72e-01h  1
 204 -1.3570724e-01 3.63e-01 9.34e-01  -6.0 1.11e+02  -8.1 1.00e+00 1.00e+00h  1
 205 -1.3569122e-01 5.51e-01 3.41e+01  -6.0 1.37e+02  -8.6 6.09e-01 1.00e+00h  1
 206 -1.3574812e-01 1.22e+00 1.05e+01  -6.0 2.88e+02  -9.1 9.97e-01 7.70e-01h  1
 207 -1.3588061e-01 2.57e+00 2.77e+01  -6.0 1.08e+03  -9.6 4.42e-01 2.96e-01h  1
 208 -1.3594703e-01 2.58e+00 1.69e+01  -6.0 1.26e+03 -10.1 6.76e-03 4.09e-02H  1
 209 -1.3605213e-01 2.93e+00 4.55e+01  -6.0 8.40e+03 -10.5 1.31e-01 3.83e-02h  1
iter    objective    inf_pr   inf_du lg(mu)  ||d||  lg(rg) alpha_du alpha_pr  ls
 210 -1.3615662e-01 2.73e+00 9.35e+01  -6.0 5.41e+03    -  2.86e-01 1.19e-01f  1
 211 -1.3670398e-01 3.84e+00 7.31e+01  -6.0 1.41e+04    -  2.10e-01 2.11e-01h  1
 212 -1.3687171e-01 4.41e+00 5.90e+01  -6.0 5.58e+03    -  1.97e-01 1.96e-01h  1
 213 -1.3688692e-01 3.95e+00 1.11e+01  -6.0 1.57e+03 -10.1 5.59e-02 1.59e-01h  1
 214 -1.3698798e-01 2.36e+00 2.21e+02  -6.0 4.76e+03    -  1.83e-01 4.59e-01h  1
 215 -1.3698891e-01 2.11e+00 9.79e+02  -6.0 3.17e+03    -  9.11e-01 1.09e-01h  1
 216 -1.3695049e-01 1.39e+00 1.47e+02  -6.0 3.08e+03    -  7.44e-01 1.00e+00h  1
 217 -1.3695311e-01 1.05e+00 1.18e+03  -6.0 3.61e+02    -  3.02e-01 5.60e-01h  1
 218 -1.3694291e-01 1.52e+00 3.80e+03  -6.0 2.92e+02    -  5.43e-01 9.43e-01f  1
 219 -1.3695050e-01 4.32e-01 5.59e+05  -6.0 2.82e+02    -  1.51e-02 1.00e+00h  1
iter    objective    inf_pr   inf_du lg(mu)  ||d||  lg(rg) alpha_du alpha_pr  ls
 220 -1.3693522e-01 4.72e-01 1.58e+02  -6.0 8.47e+01    -  9.43e-01 1.00e+00h  1
 221 -1.3695263e-01 9.78e-01 1.07e+02  -6.0 5.72e+02    -  3.12e-01 3.33e-01h  1
 222 -1.3696825e-01 2.14e-01 1.18e+01  -6.0 1.65e+02    -  1.00e+00 8.96e-01h  1
 223 -1.3690685e-01 8.65e-01 9.68e+00  -6.0 5.28e+02  -8.8 3.01e-01 3.21e-01h  1
 224 -1.3682766e-01 3.19e-01 1.38e+01  -6.0 2.27e+02    -  5.92e-01 1.00e+00h  1
 225 -1.3682229e-01 2.88e-02 8.14e-02  -6.0 8.41e+01    -  1.00e+00 1.00e+00h  1
 226 -1.3682338e-01 2.80e-03 9.05e-03  -6.0 7.85e+00    -  1.00e+00 1.00e+00h  1
 227 -1.3682318e-01 3.68e-06 9.47e-06  -6.0 2.41e-01    -  1.00e+00 1.00e+00h  1
 228 -1.3734341e-01 4.05e+00 1.96e+01  -7.5 4.22e+03    -  1.24e-01 1.75e-01h  1
 229 -1.3783213e-01 8.81e+00 2.33e+01  -7.5 3.84e+03    -  3.38e-01 2.35e-01h  1
iter    objective    inf_pr   inf_du lg(mu)  ||d||  lg(rg) alpha_du alpha_pr  ls
 230 -1.3792516e-01 8.62e+00 5.23e+01  -7.5 3.44e+03    -  2.99e-01 6.71e-02h  1
 231 -1.3792751e-01 8.60e+00 9.65e+01  -7.5 5.37e+02  -9.3 3.80e-01 2.50e-03h  1
 232 -1.3803194e-01 8.27e+00 9.20e+01  -7.5 3.23e+02  -7.9 2.73e-02 3.79e-02h  1
 233 -1.3807135e-01 8.19e+00 9.08e+01  -7.5 1.13e+03  -8.4 7.86e-03 1.05e-02h  1
 234 -1.3811572e-01 5.51e+00 7.40e+01  -7.5 3.46e+01  -8.0 5.12e-01 3.28e-01h  1
 235 -1.3821481e-01 2.43e+00 4.21e+01  -7.5 7.40e+01  -8.4 5.74e-01 5.60e-01h  1
 236 -1.3827877e-01 1.78e+00 3.10e+01  -7.5 2.64e+02  -8.9 1.82e-01 2.69e-01h  1
 237 -1.3856094e-01 1.82e+01 2.10e+01  -7.5 3.43e+03    -  2.46e-01 3.33e-01h  1
 238 -1.3862554e-01 1.64e+01 1.89e+01  -7.5 2.65e+03    -  3.81e-01 1.20e-01h  1
 239 -1.3881850e-01 1.46e+01 1.06e+01  -7.5 2.30e+03    -  2.95e-01 4.42e-01h  1
iter    objective    inf_pr   inf_du lg(mu)  ||d||  lg(rg) alpha_du alpha_pr  ls
 240 -1.3881248e-01 9.67e+00 8.23e+00  -7.5 1.21e+02  -9.4 1.68e-01 3.40e-01h  1
 241 -1.3882232e-01 1.70e+00 2.06e+00  -7.5 3.34e+02  -9.9 1.00e+00 9.80e-01h  1
 242 -1.3882682e-01 1.69e+00 2.03e+00  -7.5 1.71e+04    -  1.29e-01 1.07e-02h  1
 243 -1.3897129e-01 4.00e+01 2.14e+01  -7.5 3.22e+03    -  3.95e-01 5.32e-01h  1
 244 -1.3897149e-01 3.97e+01 2.13e+01  -7.5 3.73e+03    -  3.81e-01 6.87e-03h  1
 245 -1.3899567e-01 3.73e+01 5.55e+01  -7.5 3.28e+03    -  7.27e-02 1.45e-01h  1
 246 -1.3902273e-01 3.54e+01 1.13e+02  -7.5 3.08e+03    -  1.14e-01 1.96e-01h  1
 247 -1.3904175e-01 3.35e+01 1.41e+02  -7.5 3.25e+03    -  2.46e-01 1.29e-01h  1
 248 -1.3908296e-01 3.80e+01 3.81e+02  -7.5 3.09e+03    -  2.53e-01 3.21e-01h  1
 249 -1.3910808e-01 3.65e+01 4.15e+02  -7.5 3.04e+03    -  7.27e-01 2.03e-01h  1
iter    objective    inf_pr   inf_du lg(mu)  ||d||  lg(rg) alpha_du alpha_pr  ls
 250 -1.3912435e-01 3.42e+01 3.56e+02  -7.5 2.94e+03    -  7.41e-01 1.39e-01h  1
 251 -1.3912650e-01 3.35e+01 3.42e+02  -7.5 2.38e+03    -  5.59e-02 2.35e-02h  1
 252 -1.3915814e-01 2.88e+01 6.22e+02  -7.5 2.45e+03    -  1.32e-01 3.58e-01h  1
 253 -1.3916017e-01 2.82e+01 6.09e+02  -7.5 3.48e+03    -  3.16e-02 2.07e-02h  1
 254 -1.3916509e-01 2.69e+01 5.77e+02  -7.5 3.64e+03    -  8.61e-02 5.21e-02h  1
 255 -1.3921172e-01 5.28e+01 2.60e+02  -7.5 3.84e+03    -  7.88e-02 4.89e-01h  1
 256 -1.3922697e-01 5.24e+01 2.28e+02  -7.5 5.54e+03    -  1.15e-01 1.34e-01h  1
 257 -1.3923706e-01 5.11e+01 2.09e+02  -7.5 6.04e+03    -  5.38e-02 8.73e-02h  1
 258 -1.3925020e-01 1.04e+02 1.64e+02  -7.5 8.53e+03    -  2.39e-04 2.81e-01h  1
 259 -1.3926453e-01 8.73e+01 9.36e+02  -7.5 1.68e+03 -10.4 1.14e-02 1.62e-01h  1
iter    objective    inf_pr   inf_du lg(mu)  ||d||  lg(rg) alpha_du alpha_pr  ls
 260 -1.3930253e-01 4.94e+01 8.07e+02  -7.5 1.55e+03 -10.8 1.80e-02 4.34e-01h  1
 261 -1.3930716e-01 3.85e+01 6.26e+02  -7.5 1.43e+03 -11.3 4.34e-02 2.21e-01h  1
 262 -1.3931183e-01 3.74e+01 6.08e+02  -7.5 3.86e+03 -11.8 3.15e-02 2.89e-02h  1
 263 -1.3933214e-01 2.75e+01 4.48e+02  -7.5 7.47e+02 -11.4 5.38e-01 2.63e-01h  1
 264 -1.3935018e-01 2.03e+01 3.31e+02  -7.5 2.95e+02 -11.8 2.14e-01 2.62e-01h  1
 265 -1.3941480e-01 2.19e+00 2.69e+02  -7.5 2.75e+02 -11.4 8.35e-01 1.00e+00h  1
 266 -1.3943454e-01 9.01e+00 1.64e+03  -7.5 8.93e+03 -11.9 3.05e-01 9.42e-02h  1
 267 -1.3951210e-01 4.77e+01 1.50e+03  -7.5 3.65e+03 -11.5 2.31e-01 5.12e-01h  1
 268 -1.3951515e-01 4.71e+01 5.56e+03  -7.5 3.45e+03 -11.9 1.87e-01 1.22e-02h  1
 269 -1.3951916e-01 4.62e+01 5.71e+03  -7.5 4.98e+04 -12.4 2.73e-02 1.99e-02h  1
iter    objective    inf_pr   inf_du lg(mu)  ||d||  lg(rg) alpha_du alpha_pr  ls
 270 -1.3952154e-01 4.58e+01 5.80e+03  -7.5 2.65e+03    -  1.42e-02 8.92e-03h  1
 271 -1.3952294e-01 4.57e+01 1.42e+06  -7.5 4.54e+04    -  2.84e-05 2.58e-03h  1
 272 -1.3958621e-01 2.71e+01 7.17e+05  -7.5 2.37e+03    -  2.15e-02 4.90e-01h  1
 273 -1.3959046e-01 2.78e+01 6.46e+05  -7.5 4.98e+03 -12.0 8.65e-02 9.93e-02h  2
 274 -1.3958982e-01 1.73e+01 3.76e+05  -7.5 1.02e+03 -11.6 1.10e-01 4.19e-01h  1
 275 -1.3959210e-01 4.45e+00 1.94e+02  -7.5 4.90e+02 -11.1 7.46e-01 1.00e+00h  1
 276 -1.3964963e-01 3.32e+00 1.27e+02  -7.5 4.20e+02 -10.7 3.24e-01 3.38e-01h  1
 277 -1.3966892e-01 5.88e+00 5.31e+01  -7.5 1.51e+03 -11.2 3.21e-02 1.00e+00H  1
 278 -1.3970539e-01 5.61e+00 5.08e+01  -7.5 4.71e+01  -6.3 2.45e-02 4.57e-02h  1
 279 -1.3971142e-01 6.89e-02 2.69e+01  -7.5 2.55e+00  -6.7 1.00e+00 9.88e-01h  1
iter    objective    inf_pr   inf_du lg(mu)  ||d||  lg(rg) alpha_du alpha_pr  ls
 280 -1.3970350e-01 1.83e-04 1.06e+01  -7.5 2.00e+00  -7.2 2.86e-01 1.00e+00h  1
 281 -1.3970663e-01 5.36e-04 7.93e-02  -7.5 4.76e+00  -7.7 1.00e+00 1.00e+00h  1
 282 -1.3970679e-01 7.94e-04 1.40e-01  -7.5 1.33e+01  -8.2 1.00e+00 3.21e-01h  2
 283 -1.3970697e-01 8.08e-04 1.24e-01  -7.5 1.60e+01  -8.6 1.00e+00 1.47e-01h  2
 284 -1.3970698e-01 7.71e-04 1.68e-01  -7.5 2.46e+01  -9.1 1.00e+00 5.39e-02h  5
 285 -1.3970896e-01 9.93e-04 1.55e+00  -7.5 7.92e+01  -9.6 1.00e+00 1.00e+00H  1
 286 -1.3971781e-01 1.40e+00 1.75e+01  -7.5 2.65e+02 -10.1 1.00e+00 1.00e+00h  1
 287 -1.3976046e-01 2.63e+01 3.67e+02  -7.5 1.51e+03 -10.5 1.00e+00 7.55e-01h  1
 288 -1.3975432e-01 1.21e+01 1.75e+02  -7.5 4.18e+02    -  1.90e-01 5.82e-01h  1
 289 -1.3976382e-01 1.12e+01 1.65e+02  -7.5 1.30e+03    -  5.72e-01 1.26e-01h  1
iter    objective    inf_pr   inf_du lg(mu)  ||d||  lg(rg) alpha_du alpha_pr  ls
 290 -1.3976364e-01 9.18e-02 3.75e+00  -7.5 6.90e+01    -  1.00e+00 1.00e+00h  1
 291 -1.3976284e-01 2.63e-04 1.18e+00  -7.5 3.59e+00    -  1.00e+00 1.00e+00h  1
 292 -1.3976284e-01 1.25e-07 9.48e-05  -7.5 7.65e-02    -  1.00e+00 1.00e+00h  1
 293 -1.3976284e-01 4.58e-10 2.75e-12  -7.5 3.97e-06    -  1.00e+00 1.00e+00h  1
 294 -1.3976652e-01 2.60e-01 4.11e+00  -9.0 2.83e+02    -  7.46e-01 4.11e-01h  1
 295 -1.3976682e-01 2.44e-01 6.32e+00  -9.0 2.17e+02    -  9.28e-01 9.39e-02h  1
 296 -1.3976792e-01 1.28e-01 3.57e+00  -9.0 8.11e+01 -11.0 1.00e+00 9.23e-01h  1
 297 -1.3976801e-01 3.15e-01 1.63e-01  -9.0 1.27e+02    -  5.27e-01 1.00e+00h  1
 298 -1.3976793e-01 9.65e-04 7.50e-06  -9.0 7.26e+00 -11.5 1.00e+00 1.00e+00h  1
 299 -1.3976793e-01 5.59e-03 4.67e-07  -9.0 2.20e+01 -12.0 1.00e+00 1.00e+00h  1
iter    objective    inf_pr   inf_du lg(mu)  ||d||  lg(rg) alpha_du alpha_pr  ls
 300 -1.3976794e-01 6.64e-02 3.78e-06  -9.0 7.57e+01 -12.5 1.00e+00 1.00e+00h  1
 301 -1.3976797e-01 5.80e-02 3.39e-03  -9.0 5.07e+02 -12.9 5.31e-01 1.00e+00H  1
 302 -1.3976799e-01 9.01e-02 4.55e-03  -9.0 2.76e+02 -12.5 2.55e-01 1.00e+00H  1
 303 -1.3976802e-01 1.45e-02 1.40e-03  -9.0 2.04e+02 -12.1 8.07e-01 1.00e+00H  1
 304 -1.3976806e-01 1.94e+00 1.01e-04  -9.0 3.91e+02 -12.6 1.00e+00 1.00e+00h  1
 305 -1.3976852e-01 1.00e+02 3.10e-02  -9.0 4.82e+03 -13.0 1.03e-01 5.97e-01h  1
 306 -1.3976836e-01 8.83e+01 7.84e-02  -9.0 3.54e+03    -  1.00e+00 1.56e-01h  3
 307 -1.3976838e-01 8.83e+01 1.14e-01  -9.0 1.38e+05    -  1.11e-02 3.51e-04h  5
 308 -1.3976893e-01 8.24e+01 1.41e-01  -9.0 4.07e+03    -  5.21e-01 3.05e-01h  1
 309 -1.3977030e-01 7.43e+01 1.76e-01  -9.0 2.25e+03    -  5.18e-01 1.00e+00h  1
iter    objective    inf_pr   inf_du lg(mu)  ||d||  lg(rg) alpha_du alpha_pr  ls
 310 -1.3977196e-01 6.27e+01 3.59e-01  -9.0 1.97e+03    -  2.04e-02 1.00e+00h  1
 311 -1.3977214e-01 5.67e+01 1.09e+00  -9.0 1.96e+03    -  3.01e-01 1.07e-01h  1
 312 -1.3977369e-01 5.49e+01 1.42e+00  -9.0 1.77e+03    -  6.06e-01 1.00e+00h  1
 313 -1.3977408e-01 4.45e+01 2.83e+00  -9.0 1.65e+03    -  1.15e-01 2.48e-01h  1
 314 -1.3977525e-01 3.96e+01 1.22e+01  -9.0 1.64e+03    -  2.48e-01 7.26e-01h  1
 315 -1.3977698e-01 4.27e+01 6.43e+02  -9.0 1.44e+03    -  1.72e-02 1.00e+00h  1
 316 -1.3977928e-01 4.32e+01 4.47e+00  -9.0 1.38e+03 -11.7 4.57e-01 1.00e+00h  1
 317 -1.3978031e-01 7.75e+00 4.49e+00  -9.0 4.10e+02 -11.3 5.00e-01 9.13e-01h  1
 318 -1.3977913e-01 5.80e-03 1.86e-02  -9.0 5.88e+02    -  7.27e-01 1.00e+00H  1
 319 -1.3978027e-01 3.40e+00 1.45e-02  -9.0 1.02e+03    -  1.00e+00 5.86e-01H  1
iter    objective    inf_pr   inf_du lg(mu)  ||d||  lg(rg) alpha_du alpha_pr  ls
 320 -1.3978029e-01 1.16e-05 4.04e-05  -9.0 3.81e+00    -  1.00e+00 1.00e+00h  1
 321 -1.3978029e-01 2.87e-08 9.29e-09  -9.0 3.45e-02    -  1.00e+00 1.00e+00h  1
 322 -1.3978029e-01 3.05e-10 5.53e-14  -9.0 6.83e-06    -  1.00e+00 1.00e+00h  1

Number of Iterations....: 322

                                   (scaled)                 (unscaled)
Objective...............:  -1.3978028745207630e-01   -1.3978028745207630e-01
Dual infeasibility......:   5.5261351050717167e-14    5.5261351050717167e-14
Constraint violation....:   3.0548423816598169e-10    3.0548423816598169e-10
Complementarity.........:   9.0909090913002120e-10    9.0909090913002120e-10
Overall NLP error.......:   9.0909090913002120e-10    9.0909090913002120e-10


Number of objective function evaluations             = 756
Number of objective gradient evaluations             = 322
Number of equality constraint evaluations            = 756
Number of inequality constraint evaluations          = 757
Number of equality constraint Jacobian evaluations   = 336
Number of inequality constraint Jacobian evaluations = 336
Number of Lagrangian Hessian evaluations             = 322
Total CPU secs in IPOPT (w/o function evaluations)   =    140.402
Total CPU secs in NLP function evaluations           =      6.182

EXIT: Optimal Solution Found.
